VACCINE = Vaccine(1..4);
m = 24;
age = [BABY, BABY, YOUTH, CHILD, AGED, CHILD, ANCIENT, ANCIENT, ADULT, ADULT, SENIOR, SENIOR, BABY, ANCIENT, YOUTH, BABY, BABY, CHILD, BABY, AGED, YOUTH, YOUTH, SENIOR, ADULT];
gender = [OTHER, FEMALE, MALE, FEMALE, OTHER, OTHER, FEMALE, FEMALE, OTHER, MALE, OTHER, MALE, OTHER, MALE, OTHER, FEMALE, FEMALE, MALE, FEMALE, FEMALE, OTHER, OTHER, FEMALE, MALE];
health = [GOOD, GOOD, GOOD, POOR, GOOD, POOR, GOOD, COMPROMISED, POOR, COMPROMISED, POOR, POOR, COMPROMISED, COMPROMISED, COMPROMISED, POOR, POOR, POOR, POOR, COMPROMISED, GOOD, POOR, GOOD, POOR];
exposure = [HIGH, LOW, LOW, EXTREME, LOW, AVERAGE, AVERAGE, LOW, AVERAGE, LOW, HIGH, EXTREME, HIGH, HIGH, LOW, HIGH, LOW, HIGH, AVERAGE, LOW, EXTREME, HIGH, LOW, HIGH];
size = [8, 9, 4, 7, 4, 6, 4, 9, 8, 5, 9, 7, 9, 7, 8, 8, 7, 7, 8, 6, 5, 8, 6, 6];
minsize = 4;
age_group_min = [0, 0, 0, 1, 0, 0, 1];
age_group_max = [13, 21, 23, 9, 8, 17, 20];
max_people_diff = 94;
max_share_vaccines = 3;
health_information = {8, 14, 18};
exposure_information = {11, 12, 16, 22};